20
1 0 7
2 0 5
2 1 5
3 0 2
3 1 6
3 2 3
4 0 6
4 1 3
4 2 3
4 3 1
5 0 7
5 1 7
5 2 4
5 3 5
5 4 3
6 0 7
6 1 6
6 2 3
6 3 6
6 4 5
6 5 6
7 0 2
7 1 2
7 2 4
7 3 6
7 4 1
7 5 3
7 6 6
8 0 3
8 1 6
8 2 1
8 3 1
8 4 1
8 5 5
8 6 1
8 7 7
9 0 3
9 1 2
9 2 7
9 3 3
9 4 2
9 5 7
9 6 7
9 7 6
9 8 4
10 0 2
10 1 2
10 2 3
10 3 2
10 4 6
10 5 1
10 6 4
10 7 2
10 8 6
10 9 7
11 0 6
11 1 2
11 2 2
11 3 5
11 4 5
11 5 2
11 6 4
11 7 4
11 8 4
11 9 4
11 10 2
12 0 4
12 1 4
12 2 7
12 3 5
12 4 7
12 5 7
12 6 6
12 7 7
12 8 1
12 9 4
12 10 5
12 11 5
13 0 2
13 1 4
13 2 2
13 3 5
13 4 5
13 5 3
13 6 6
13 7 4
13 8 7
13 9 5
13 10 7
13 11 3
13 12 7
14 0 6
14 1 3
14 2 7
14 3 1
14 4 2
14 5 2
14 6 3
14 7 6
14 8 4
14 9 7
14 10 4
14 11 4
14 12 5
14 13 6
15 0 3
15 1 5
15 2 5
15 3 3
15 4 2
15 5 3
15 6 5
15 7 1
15 8 6
15 9 5
15 10 6
15 11 7
15 12 6
15 13 7
15 14 5
16 0 4
16 1 2
16 2 6
16 3 3
16 4 2
16 5 1
16 6 7
16 7 1
16 8 2
16 9 3
16 10 3
16 11 3
16 12 7
16 13 6
16 14 2
16 15 2
17 0 6
17 1 5
17 2 3
17 3 1
17 4 2
17 5 1
17 6 7
17 7 5
17 8 3
17 9 5
17 10 1
17 11 2
17 12 6
17 13 4
17 14 1
17 15 4
17 16 3
18 0 7
18 1 4
18 2 7
18 3 2
18 4 4
18 5 3
18 6 3
18 7 6
18 8 4
18 9 7
18 10 4
18 11 2
18 12 5
18 13 1
18 14 3
18 15 3
18 16 2
18 17 2
19 0 1
19 1 1
19 2 4
19 3 6
19 4 7
19 5 6
19 6 3
19 7 4
19 8 2
19 9 7
19 10 5
19 11 2
19 12 4
19 13 7
19 14 3
19 15 7
19 16 7
19 17 2
19 18 4
